TCS_Benchmarks/redos_fix/snort3_output_distinct_774_773_1_0.smt2
(set-logic QF_S)
(declare-const x String)
(assert (str.in.re x (re.inter  (re.++ (re.* (re.comp  (re.union  (str.to.re "\u{20}") (re.union  (str.to.re "\u{0a}")  (str.to.re "\u{26}")))) ) (re.* (re.comp  (re.union  (str.to.re "\u{20}") (re.union  (str.to.re "\u{0a}")  (str.to.re "\u{26}")))) ))  (re.++ (re.* (re.comp  (re.union  (str.to.re "\u{20}") (re.union  (str.to.re "\u{0a}")  (str.to.re "\u{26}")))) ) (re.++  (re.++  (re.union  (str.to.re "\u{69}")  (str.to.re "\u{49}")) (re.++  (re.union  (str.to.re "\u{6e}")  (str.to.re "\u{4e}")) (re.++  (re.union  (str.to.re "\u{73}")  (str.to.re "\u{53}")) (re.++  (re.union  (str.to.re "\u{65}")  (str.to.re "\u{45}")) (re.++  (re.union  (str.to.re "\u{72}")  (str.to.re "\u{52}"))  (re.union  (str.to.re "\u{74}")  (str.to.re "\u{54}"))))))) (re.* (re.comp  (re.union  (str.to.re "\u{20}") (re.union  (str.to.re "\u{0a}")  (str.to.re "\u{26}")))) ))) )))
(check-sat)
(get-model)