TCS_Benchmarks/redos_fix/snort3_output_distinct_774_773_1_0.txt
([^ 
&]*)([^ 
&]*)
([^ 
&]*)([iI][nN][sS][eE][rR][tT])([^ 
&]*)